Maximize
  27 x0_0_ + 27 x0_1_ + 27 x0_2_ + 27 x0_3_ + 27 x0_4_ + 27 x0_5_ + 21 x0_6_
   + 6 x0_7_ + 6 x0_8_ + 6 x0_9_ + 360 x1_7_ + 360 x1_8_ + 360 x1_9_
   + 68 x2_7_ + 68 x2_8_ + 68 x2_9_ + 45 x3_0_ + 45 x3_1_ + 45 x3_2_
   + 45 x3_3_ + 45 x3_4_ + 45 x3_5_ + 35 x3_6_ + 10 x3_7_ + 10 x3_8_
   + 10 x3_9_ + 27 x4_0_ + 27 x4_1_ + 27 x4_2_ + 27 x4_3_ + 27 x4_4_
   + 27 x4_5_ + 21 x4_6_ + 6 x4_7_ + 6 x4_8_ + 6 x4_9_ + 216 x5_7_
   + 216 x5_8_ + 216 x5_9_ + 45 x6_0_ + 45 x6_1_ + 45 x6_2_ + 45 x6_3_
   + 45 x6_4_ + 45 x6_5_ + 35 x6_6_ + 10 x6_7_ + 10 x6_8_ + 10 x6_9_
   + 45 x7_0_ + 45 x7_1_ + 45 x7_2_ + 45 x7_3_ + 45 x7_4_ + 45 x7_5_
   + 35 x7_6_ + 10 x7_7_ + 10 x7_8_ + 10 x7_9_ + 18 x8_0_ + 18 x8_1_
   + 18 x8_2_ + 18 x8_3_ + 18 x8_4_ + 18 x8_5_ + 14 x8_6_ + 4 x8_7_
   + 4 x8_8_ + 4 x8_9_ + 360 x9_7_ + 360 x9_8_ + 360 x9_9_ + 18 x10_0_
   + 18 x10_1_ + 18 x10_2_ + 18 x10_3_ + 18 x10_4_ + 18 x10_5_ + 14 x10_6_
   + 4 x10_7_ + 4 x10_8_ + 4 x10_9_ + 216 x11_7_ + 216 x11_8_ + 216 x11_9_
   + 54 x12_0_ + 54 x12_1_ + 54 x12_2_ + 54 x12_3_ + 54 x12_4_ + 54 x12_5_
   + 42 x12_6_ + 12 x12_7_ + 12 x12_8_ + 12 x12_9_ + 45 x13_0_ + 45 x13_1_
   + 45 x13_2_ + 45 x13_3_ + 45 x13_4_ + 45 x13_5_ + 35 x13_6_ + 10 x13_7_
   + 10 x13_8_ + 10 x13_9_ + 288 x14_7_ + 288 x14_8_ + 288 x14_9_
Subject To
 R0: x0_0_ + x0_1_ + x0_2_ + x0_3_ + x0_4_ + x0_5_ + x0_6_ + x0_7_ + x0_8_
   + x0_9_ + x0_n_ = 1
 R1: x1_6_ + x1_7_ + x1_8_ + x1_9_ + x1_n_ = 1
 R2: x2_7_ + x2_8_ + x2_9_ + x2_n_ = 1
 R3: x3_0_ + x3_1_ + x3_2_ + x3_3_ + x3_4_ + x3_5_ + x3_6_ + x3_7_ + x3_8_
   + x3_9_ + x3_n_ = 1
 R4: x4_0_ + x4_1_ + x4_2_ + x4_3_ + x4_4_ + x4_5_ + x4_6_ + x4_7_ + x4_8_
   + x4_9_ + x4_n_ = 1
 R5: x5_6_ + x5_7_ + x5_8_ + x5_9_ + x5_n_ = 1
 R6: x6_0_ + x6_1_ + x6_2_ + x6_3_ + x6_4_ + x6_5_ + x6_6_ + x6_7_ + x6_8_
   + x6_9_ + x6_n_ = 1
 R7: x7_0_ + x7_1_ + x7_2_ + x7_3_ + x7_4_ + x7_5_ + x7_6_ + x7_7_ + x7_8_
   + x7_9_ + x7_n_ = 1
 R8: x8_0_ + x8_1_ + x8_2_ + x8_3_ + x8_4_ + x8_5_ + x8_6_ + x8_7_ + x8_8_
   + x8_9_ + x8_n_ = 1
 R9: x9_6_ + x9_7_ + x9_8_ + x9_9_ + x9_n_ = 1
 R10: x10_0_ + x10_1_ + x10_2_ + x10_3_ + x10_4_ + x10_5_ + x10_6_ + x10_7_
   + x10_8_ + x10_9_ + x10_n_ = 1
 R11: x11_6_ + x11_7_ + x11_8_ + x11_9_ + x11_n_ = 1
 R12: x12_0_ + x12_1_ + x12_2_ + x12_3_ + x12_4_ + x12_5_ + x12_6_ + x12_7_
   + x12_8_ + x12_9_ + x12_n_ = 1
 R13: x13_0_ + x13_1_ + x13_2_ + x13_3_ + x13_4_ + x13_5_ + x13_6_ + x13_7_
   + x13_8_ + x13_9_ + x13_n_ = 1
 R14: x14_6_ + x14_7_ + x14_8_ + x14_9_ + x14_n_ = 1
 R15: x0_0_ + x3_0_ <= 1
 R16: x0_1_ + x3_1_ <= 1
 R17: x0_2_ + x3_2_ <= 1
 R18: x0_3_ + x3_3_ <= 1
 R19: x0_4_ + x3_4_ <= 1
 R20: x0_5_ + x3_5_ <= 1
 R21: x0_6_ + x3_6_ <= 1
 R22: x0_7_ + x3_7_ <= 1
 R23: x0_8_ + x3_8_ <= 1
 R24: x0_9_ + x3_9_ <= 1
 R25: x0_0_ + x4_0_ <= 1
 R26: x0_1_ + x4_1_ <= 1
 R27: x0_2_ + x4_2_ <= 1
 R28: x0_3_ + x4_3_ <= 1
 R29: x0_4_ + x4_4_ <= 1
 R30: x0_5_ + x4_5_ <= 1
 R31: x0_6_ + x4_6_ <= 1
 R32: x0_7_ + x4_7_ <= 1
 R33: x0_8_ + x4_8_ <= 1
 R34: x0_9_ + x4_9_ <= 1
 R35: x0_0_ + x6_0_ <= 1
 R36: x0_1_ + x6_1_ <= 1
 R37: x0_2_ + x6_2_ <= 1
 R38: x0_3_ + x6_3_ <= 1
 R39: x0_4_ + x6_4_ <= 1
 R40: x0_5_ + x6_5_ <= 1
 R41: x0_6_ + x6_6_ <= 1
 R42: x0_7_ + x6_7_ <= 1
 R43: x0_8_ + x6_8_ <= 1
 R44: x0_9_ + x6_9_ <= 1
 R45: x0_0_ + x7_0_ <= 1
 R46: x0_1_ + x7_1_ <= 1
 R47: x0_2_ + x7_2_ <= 1
 R48: x0_3_ + x7_3_ <= 1
 R49: x0_4_ + x7_4_ <= 1
 R50: x0_5_ + x7_5_ <= 1
 R51: x0_6_ + x7_6_ <= 1
 R52: x0_7_ + x7_7_ <= 1
 R53: x0_8_ + x7_8_ <= 1
 R54: x0_9_ + x7_9_ <= 1
 R55: x0_0_ + x10_0_ <= 1
 R56: x0_1_ + x10_1_ <= 1
 R57: x0_2_ + x10_2_ <= 1
 R58: x0_3_ + x10_3_ <= 1
 R59: x0_4_ + x10_4_ <= 1
 R60: x0_5_ + x10_5_ <= 1
 R61: x0_6_ + x10_6_ <= 1
 R62: x0_7_ + x10_7_ <= 1
 R63: x0_8_ + x10_8_ <= 1
 R64: x0_9_ + x10_9_ <= 1
 R65: x0_0_ + x12_0_ <= 1
 R66: x0_1_ + x12_1_ <= 1
 R67: x0_2_ + x12_2_ <= 1
 R68: x0_3_ + x12_3_ <= 1
 R69: x0_4_ + x12_4_ <= 1
 R70: x0_5_ + x12_5_ <= 1
 R71: x0_6_ + x12_6_ <= 1
 R72: x0_7_ + x12_7_ <= 1
 R73: x0_8_ + x12_8_ <= 1
 R74: x0_9_ + x12_9_ <= 1
 R75: x0_0_ + x13_0_ <= 1
 R76: x0_1_ + x13_1_ <= 1
 R77: x0_2_ + x13_2_ <= 1
 R78: x0_3_ + x13_3_ <= 1
 R79: x0_4_ + x13_4_ <= 1
 R80: x0_5_ + x13_5_ <= 1
 R81: x0_6_ + x13_6_ <= 1
 R82: x0_7_ + x13_7_ <= 1
 R83: x0_8_ + x13_8_ <= 1
 R84: x0_9_ + x13_9_ <= 1
 R85: x1_6_ + x3_6_ <= 1
 R86: x1_7_ + x3_7_ <= 1
 R87: x1_8_ + x3_8_ <= 1
 R88: x1_9_ + x3_9_ <= 1
 R89: x1_6_ + x6_6_ <= 1
 R90: x1_7_ + x6_7_ <= 1
 R91: x1_8_ + x6_8_ <= 1
 R92: x1_9_ + x6_9_ <= 1
 R93: x1_6_ + x7_6_ <= 1
 R94: x1_7_ + x7_7_ <= 1
 R95: x1_8_ + x7_8_ <= 1
 R96: x1_9_ + x7_9_ <= 1
 R97: x1_6_ + x9_6_ <= 1
 R98: x1_7_ + x9_7_ <= 1
 R99: x1_8_ + x9_8_ <= 1
 R100: x1_9_ + x9_9_ <= 1
 R101: x1_6_ + x11_6_ <= 1
 R102: x1_7_ + x11_7_ <= 1
 R103: x1_8_ + x11_8_ <= 1
 R104: x1_9_ + x11_9_ <= 1
 R105: x1_6_ + x12_6_ <= 1
 R106: x1_7_ + x12_7_ <= 1
 R107: x1_8_ + x12_8_ <= 1
 R108: x1_9_ + x12_9_ <= 1
 R109: x1_6_ + x13_6_ <= 1
 R110: x1_7_ + x13_7_ <= 1
 R111: x1_8_ + x13_8_ <= 1
 R112: x1_9_ + x13_9_ <= 1
 R113: x1_6_ + x14_6_ <= 1
 R114: x1_7_ + x14_7_ <= 1
 R115: x1_8_ + x14_8_ <= 1
 R116: x1_9_ + x14_9_ <= 1
 R117: x1_7_ + x2_7_ <= 1
 R118: x1_8_ + x2_8_ <= 1
 R119: x1_9_ + x2_9_ <= 1
 R120: x2_7_ + x3_7_ <= 1
 R121: x2_8_ + x3_8_ <= 1
 R122: x2_9_ + x3_9_ <= 1
 R123: x2_7_ + x6_7_ <= 1
 R124: x2_8_ + x6_8_ <= 1
 R125: x2_9_ + x6_9_ <= 1
 R126: x2_7_ + x7_7_ <= 1
 R127: x2_8_ + x7_8_ <= 1
 R128: x2_9_ + x7_9_ <= 1
 R129: x2_7_ + x9_7_ <= 1
 R130: x2_8_ + x9_8_ <= 1
 R131: x2_9_ + x9_9_ <= 1
 R132: x2_7_ + x11_7_ <= 1
 R133: x2_8_ + x11_8_ <= 1
 R134: x2_9_ + x11_9_ <= 1
 R135: x2_7_ + x12_7_ <= 1
 R136: x2_8_ + x12_8_ <= 1
 R137: x2_9_ + x12_9_ <= 1
 R138: x0_0_ + x3_0_ <= 1
 R139: x0_1_ + x3_1_ <= 1
 R140: x0_2_ + x3_2_ <= 1
 R141: x0_3_ + x3_3_ <= 1
 R142: x0_4_ + x3_4_ <= 1
 R143: x0_5_ + x3_5_ <= 1
 R144: x0_6_ + x3_6_ <= 1
 R145: x0_7_ + x3_7_ <= 1
 R146: x0_8_ + x3_8_ <= 1
 R147: x0_9_ + x3_9_ <= 1
 R148: x3_0_ + x4_0_ <= 1
 R149: x3_1_ + x4_1_ <= 1
 R150: x3_2_ + x4_2_ <= 1
 R151: x3_3_ + x4_3_ <= 1
 R152: x3_4_ + x4_4_ <= 1
 R153: x3_5_ + x4_5_ <= 1
 R154: x3_6_ + x4_6_ <= 1
 R155: x3_7_ + x4_7_ <= 1
 R156: x3_8_ + x4_8_ <= 1
 R157: x3_9_ + x4_9_ <= 1
 R158: x3_0_ + x6_0_ <= 1
 R159: x3_1_ + x6_1_ <= 1
 R160: x3_2_ + x6_2_ <= 1
 R161: x3_3_ + x6_3_ <= 1
 R162: x3_4_ + x6_4_ <= 1
 R163: x3_5_ + x6_5_ <= 1
 R164: x3_6_ + x6_6_ <= 1
 R165: x3_7_ + x6_7_ <= 1
 R166: x3_8_ + x6_8_ <= 1
 R167: x3_9_ + x6_9_ <= 1
 R168: x3_0_ + x7_0_ <= 1
 R169: x3_1_ + x7_1_ <= 1
 R170: x3_2_ + x7_2_ <= 1
 R171: x3_3_ + x7_3_ <= 1
 R172: x3_4_ + x7_4_ <= 1
 R173: x3_5_ + x7_5_ <= 1
 R174: x3_6_ + x7_6_ <= 1
 R175: x3_7_ + x7_7_ <= 1
 R176: x3_8_ + x7_8_ <= 1
 R177: x3_9_ + x7_9_ <= 1
 R178: x3_0_ + x10_0_ <= 1
 R179: x3_1_ + x10_1_ <= 1
 R180: x3_2_ + x10_2_ <= 1
 R181: x3_3_ + x10_3_ <= 1
 R182: x3_4_ + x10_4_ <= 1
 R183: x3_5_ + x10_5_ <= 1
 R184: x3_6_ + x10_6_ <= 1
 R185: x3_7_ + x10_7_ <= 1
 R186: x3_8_ + x10_8_ <= 1
 R187: x3_9_ + x10_9_ <= 1
 R188: x3_0_ + x12_0_ <= 1
 R189: x3_1_ + x12_1_ <= 1
 R190: x3_2_ + x12_2_ <= 1
 R191: x3_3_ + x12_3_ <= 1
 R192: x3_4_ + x12_4_ <= 1
 R193: x3_5_ + x12_5_ <= 1
 R194: x3_6_ + x12_6_ <= 1
 R195: x3_7_ + x12_7_ <= 1
 R196: x3_8_ + x12_8_ <= 1
 R197: x3_9_ + x12_9_ <= 1
 R198: x3_0_ + x13_0_ <= 1
 R199: x3_1_ + x13_1_ <= 1
 R200: x3_2_ + x13_2_ <= 1
 R201: x3_3_ + x13_3_ <= 1
 R202: x3_4_ + x13_4_ <= 1
 R203: x3_5_ + x13_5_ <= 1
 R204: x3_6_ + x13_6_ <= 1
 R205: x3_7_ + x13_7_ <= 1
 R206: x3_8_ + x13_8_ <= 1
 R207: x3_9_ + x13_9_ <= 1
 R208: x0_0_ + x4_0_ <= 1
 R209: x0_1_ + x4_1_ <= 1
 R210: x0_2_ + x4_2_ <= 1
 R211: x0_3_ + x4_3_ <= 1
 R212: x0_4_ + x4_4_ <= 1
 R213: x0_5_ + x4_5_ <= 1
 R214: x0_6_ + x4_6_ <= 1
 R215: x0_7_ + x4_7_ <= 1
 R216: x0_8_ + x4_8_ <= 1
 R217: x0_9_ + x4_9_ <= 1
 R218: x3_0_ + x4_0_ <= 1
 R219: x3_1_ + x4_1_ <= 1
 R220: x3_2_ + x4_2_ <= 1
 R221: x3_3_ + x4_3_ <= 1
 R222: x3_4_ + x4_4_ <= 1
 R223: x3_5_ + x4_5_ <= 1
 R224: x3_6_ + x4_6_ <= 1
 R225: x3_7_ + x4_7_ <= 1
 R226: x3_8_ + x4_8_ <= 1
 R227: x3_9_ + x4_9_ <= 1
 R228: x4_0_ + x6_0_ <= 1
 R229: x4_1_ + x6_1_ <= 1
 R230: x4_2_ + x6_2_ <= 1
 R231: x4_3_ + x6_3_ <= 1
 R232: x4_4_ + x6_4_ <= 1
 R233: x4_5_ + x6_5_ <= 1
 R234: x4_6_ + x6_6_ <= 1
 R235: x4_7_ + x6_7_ <= 1
 R236: x4_8_ + x6_8_ <= 1
 R237: x4_9_ + x6_9_ <= 1
 R238: x4_0_ + x7_0_ <= 1
 R239: x4_1_ + x7_1_ <= 1
 R240: x4_2_ + x7_2_ <= 1
 R241: x4_3_ + x7_3_ <= 1
 R242: x4_4_ + x7_4_ <= 1
 R243: x4_5_ + x7_5_ <= 1
 R244: x4_6_ + x7_6_ <= 1
 R245: x4_7_ + x7_7_ <= 1
 R246: x4_8_ + x7_8_ <= 1
 R247: x4_9_ + x7_9_ <= 1
 R248: x4_0_ + x10_0_ <= 1
 R249: x4_1_ + x10_1_ <= 1
 R250: x4_2_ + x10_2_ <= 1
 R251: x4_3_ + x10_3_ <= 1
 R252: x4_4_ + x10_4_ <= 1
 R253: x4_5_ + x10_5_ <= 1
 R254: x4_6_ + x10_6_ <= 1
 R255: x4_7_ + x10_7_ <= 1
 R256: x4_8_ + x10_8_ <= 1
 R257: x4_9_ + x10_9_ <= 1
 R258: x4_0_ + x12_0_ <= 1
 R259: x4_1_ + x12_1_ <= 1
 R260: x4_2_ + x12_2_ <= 1
 R261: x4_3_ + x12_3_ <= 1
 R262: x4_4_ + x12_4_ <= 1
 R263: x4_5_ + x12_5_ <= 1
 R264: x4_6_ + x12_6_ <= 1
 R265: x4_7_ + x12_7_ <= 1
 R266: x4_8_ + x12_8_ <= 1
 R267: x4_9_ + x12_9_ <= 1
 R268: x4_0_ + x13_0_ <= 1
 R269: x4_1_ + x13_1_ <= 1
 R270: x4_2_ + x13_2_ <= 1
 R271: x4_3_ + x13_3_ <= 1
 R272: x4_4_ + x13_4_ <= 1
 R273: x4_5_ + x13_5_ <= 1
 R274: x4_6_ + x13_6_ <= 1
 R275: x4_7_ + x13_7_ <= 1
 R276: x4_8_ + x13_8_ <= 1
 R277: x4_9_ + x13_9_ <= 1
 R278: x0_6_ + x5_6_ <= 1
 R279: x0_7_ + x5_7_ <= 1
 R280: x0_8_ + x5_8_ <= 1
 R281: x0_9_ + x5_9_ <= 1
 R282: x3_6_ + x5_6_ <= 1
 R283: x3_7_ + x5_7_ <= 1
 R284: x3_8_ + x5_8_ <= 1
 R285: x3_9_ + x5_9_ <= 1
 R286: x4_6_ + x5_6_ <= 1
 R287: x4_7_ + x5_7_ <= 1
 R288: x4_8_ + x5_8_ <= 1
 R289: x4_9_ + x5_9_ <= 1
 R290: x5_6_ + x6_6_ <= 1
 R291: x5_7_ + x6_7_ <= 1
 R292: x5_8_ + x6_8_ <= 1
 R293: x5_9_ + x6_9_ <= 1
 R294: x5_6_ + x7_6_ <= 1
 R295: x5_7_ + x7_7_ <= 1
 R296: x5_8_ + x7_8_ <= 1
 R297: x5_9_ + x7_9_ <= 1
 R298: x5_6_ + x9_6_ <= 1
 R299: x5_7_ + x9_7_ <= 1
 R300: x5_8_ + x9_8_ <= 1
 R301: x5_9_ + x9_9_ <= 1
 R302: x5_6_ + x10_6_ <= 1
 R303: x5_7_ + x10_7_ <= 1
 R304: x5_8_ + x10_8_ <= 1
 R305: x5_9_ + x10_9_ <= 1
 R306: x5_6_ + x12_6_ <= 1
 R307: x5_7_ + x12_7_ <= 1
 R308: x5_8_ + x12_8_ <= 1
 R309: x5_9_ + x12_9_ <= 1
 R310: x5_6_ + x13_6_ <= 1
 R311: x5_7_ + x13_7_ <= 1
 R312: x5_8_ + x13_8_ <= 1
 R313: x5_9_ + x13_9_ <= 1
 R314: x5_6_ + x14_6_ <= 1
 R315: x5_7_ + x14_7_ <= 1
 R316: x5_8_ + x14_8_ <= 1
 R317: x5_9_ + x14_9_ <= 1
 R318: x0_0_ + x6_0_ <= 1
 R319: x0_1_ + x6_1_ <= 1
 R320: x0_2_ + x6_2_ <= 1
 R321: x0_3_ + x6_3_ <= 1
 R322: x0_4_ + x6_4_ <= 1
 R323: x0_5_ + x6_5_ <= 1
 R324: x0_6_ + x6_6_ <= 1
 R325: x0_7_ + x6_7_ <= 1
 R326: x0_8_ + x6_8_ <= 1
 R327: x0_9_ + x6_9_ <= 1
 R328: x3_0_ + x6_0_ <= 1
 R329: x3_1_ + x6_1_ <= 1
 R330: x3_2_ + x6_2_ <= 1
 R331: x3_3_ + x6_3_ <= 1
 R332: x3_4_ + x6_4_ <= 1
 R333: x3_5_ + x6_5_ <= 1
 R334: x3_6_ + x6_6_ <= 1
 R335: x3_7_ + x6_7_ <= 1
 R336: x3_8_ + x6_8_ <= 1
 R337: x3_9_ + x6_9_ <= 1
 R338: x4_0_ + x6_0_ <= 1
 R339: x4_1_ + x6_1_ <= 1
 R340: x4_2_ + x6_2_ <= 1
 R341: x4_3_ + x6_3_ <= 1
 R342: x4_4_ + x6_4_ <= 1
 R343: x4_5_ + x6_5_ <= 1
 R344: x4_6_ + x6_6_ <= 1
 R345: x4_7_ + x6_7_ <= 1
 R346: x4_8_ + x6_8_ <= 1
 R347: x4_9_ + x6_9_ <= 1
 R348: x6_0_ + x7_0_ <= 1
 R349: x6_1_ + x7_1_ <= 1
 R350: x6_2_ + x7_2_ <= 1
 R351: x6_3_ + x7_3_ <= 1
 R352: x6_4_ + x7_4_ <= 1
 R353: x6_5_ + x7_5_ <= 1
 R354: x6_6_ + x7_6_ <= 1
 R355: x6_7_ + x7_7_ <= 1
 R356: x6_8_ + x7_8_ <= 1
 R357: x6_9_ + x7_9_ <= 1
 R358: x6_0_ + x10_0_ <= 1
 R359: x6_1_ + x10_1_ <= 1
 R360: x6_2_ + x10_2_ <= 1
 R361: x6_3_ + x10_3_ <= 1
 R362: x6_4_ + x10_4_ <= 1
 R363: x6_5_ + x10_5_ <= 1
 R364: x6_6_ + x10_6_ <= 1
 R365: x6_7_ + x10_7_ <= 1
 R366: x6_8_ + x10_8_ <= 1
 R367: x6_9_ + x10_9_ <= 1
 R368: x6_0_ + x12_0_ <= 1
 R369: x6_1_ + x12_1_ <= 1
 R370: x6_2_ + x12_2_ <= 1
 R371: x6_3_ + x12_3_ <= 1
 R372: x6_4_ + x12_4_ <= 1
 R373: x6_5_ + x12_5_ <= 1
 R374: x6_6_ + x12_6_ <= 1
 R375: x6_7_ + x12_7_ <= 1
 R376: x6_8_ + x12_8_ <= 1
 R377: x6_9_ + x12_9_ <= 1
 R378: x6_0_ + x13_0_ <= 1
 R379: x6_1_ + x13_1_ <= 1
 R380: x6_2_ + x13_2_ <= 1
 R381: x6_3_ + x13_3_ <= 1
 R382: x6_4_ + x13_4_ <= 1
 R383: x6_5_ + x13_5_ <= 1
 R384: x6_6_ + x13_6_ <= 1
 R385: x6_7_ + x13_7_ <= 1
 R386: x6_8_ + x13_8_ <= 1
 R387: x6_9_ + x13_9_ <= 1
 R388: x0_0_ + x7_0_ <= 1
 R389: x0_1_ + x7_1_ <= 1
 R390: x0_2_ + x7_2_ <= 1
 R391: x0_3_ + x7_3_ <= 1
 R392: x0_4_ + x7_4_ <= 1
 R393: x0_5_ + x7_5_ <= 1
 R394: x0_6_ + x7_6_ <= 1
 R395: x0_7_ + x7_7_ <= 1
 R396: x0_8_ + x7_8_ <= 1
 R397: x0_9_ + x7_9_ <= 1
 R398: x3_0_ + x7_0_ <= 1
 R399: x3_1_ + x7_1_ <= 1
 R400: x3_2_ + x7_2_ <= 1
 R401: x3_3_ + x7_3_ <= 1
 R402: x3_4_ + x7_4_ <= 1
 R403: x3_5_ + x7_5_ <= 1
 R404: x3_6_ + x7_6_ <= 1
 R405: x3_7_ + x7_7_ <= 1
 R406: x3_8_ + x7_8_ <= 1
 R407: x3_9_ + x7_9_ <= 1
 R408: x4_0_ + x7_0_ <= 1
 R409: x4_1_ + x7_1_ <= 1
 R410: x4_2_ + x7_2_ <= 1
 R411: x4_3_ + x7_3_ <= 1
 R412: x4_4_ + x7_4_ <= 1
 R413: x4_5_ + x7_5_ <= 1
 R414: x4_6_ + x7_6_ <= 1
 R415: x4_7_ + x7_7_ <= 1
 R416: x4_8_ + x7_8_ <= 1
 R417: x4_9_ + x7_9_ <= 1
 R418: x6_0_ + x7_0_ <= 1
 R419: x6_1_ + x7_1_ <= 1
 R420: x6_2_ + x7_2_ <= 1
 R421: x6_3_ + x7_3_ <= 1
 R422: x6_4_ + x7_4_ <= 1
 R423: x6_5_ + x7_5_ <= 1
 R424: x6_6_ + x7_6_ <= 1
 R425: x6_7_ + x7_7_ <= 1
 R426: x6_8_ + x7_8_ <= 1
 R427: x6_9_ + x7_9_ <= 1
 R428: x7_0_ + x10_0_ <= 1
 R429: x7_1_ + x10_1_ <= 1
 R430: x7_2_ + x10_2_ <= 1
 R431: x7_3_ + x10_3_ <= 1
 R432: x7_4_ + x10_4_ <= 1
 R433: x7_5_ + x10_5_ <= 1
 R434: x7_6_ + x10_6_ <= 1
 R435: x7_7_ + x10_7_ <= 1
 R436: x7_8_ + x10_8_ <= 1
 R437: x7_9_ + x10_9_ <= 1
 R438: x7_0_ + x12_0_ <= 1
 R439: x7_1_ + x12_1_ <= 1
 R440: x7_2_ + x12_2_ <= 1
 R441: x7_3_ + x12_3_ <= 1
 R442: x7_4_ + x12_4_ <= 1
 R443: x7_5_ + x12_5_ <= 1
 R444: x7_6_ + x12_6_ <= 1
 R445: x7_7_ + x12_7_ <= 1
 R446: x7_8_ + x12_8_ <= 1
 R447: x7_9_ + x12_9_ <= 1
 R448: x7_0_ + x13_0_ <= 1
 R449: x7_1_ + x13_1_ <= 1
 R450: x7_2_ + x13_2_ <= 1
 R451: x7_3_ + x13_3_ <= 1
 R452: x7_4_ + x13_4_ <= 1
 R453: x7_5_ + x13_5_ <= 1
 R454: x7_6_ + x13_6_ <= 1
 R455: x7_7_ + x13_7_ <= 1
 R456: x7_8_ + x13_8_ <= 1
 R457: x7_9_ + x13_9_ <= 1
 R458: x0_6_ + x9_6_ <= 1
 R459: x0_7_ + x9_7_ <= 1
 R460: x0_8_ + x9_8_ <= 1
 R461: x0_9_ + x9_9_ <= 1
 R462: x1_6_ + x9_6_ <= 1
 R463: x1_7_ + x9_7_ <= 1
 R464: x1_8_ + x9_8_ <= 1
 R465: x1_9_ + x9_9_ <= 1
 R466: x3_6_ + x9_6_ <= 1
 R467: x3_7_ + x9_7_ <= 1
 R468: x3_8_ + x9_8_ <= 1
 R469: x3_9_ + x9_9_ <= 1
 R470: x4_6_ + x9_6_ <= 1
 R471: x4_7_ + x9_7_ <= 1
 R472: x4_8_ + x9_8_ <= 1
 R473: x4_9_ + x9_9_ <= 1
 R474: x5_6_ + x9_6_ <= 1
 R475: x5_7_ + x9_7_ <= 1
 R476: x5_8_ + x9_8_ <= 1
 R477: x5_9_ + x9_9_ <= 1
 R478: x6_6_ + x9_6_ <= 1
 R479: x6_7_ + x9_7_ <= 1
 R480: x6_8_ + x9_8_ <= 1
 R481: x6_9_ + x9_9_ <= 1
 R482: x7_6_ + x9_6_ <= 1
 R483: x7_7_ + x9_7_ <= 1
 R484: x7_8_ + x9_8_ <= 1
 R485: x7_9_ + x9_9_ <= 1
 R486: x9_6_ + x10_6_ <= 1
 R487: x9_7_ + x10_7_ <= 1
 R488: x9_8_ + x10_8_ <= 1
 R489: x9_9_ + x10_9_ <= 1
 R490: x9_6_ + x11_6_ <= 1
 R491: x9_7_ + x11_7_ <= 1
 R492: x9_8_ + x11_8_ <= 1
 R493: x9_9_ + x11_9_ <= 1
 R494: x9_6_ + x12_6_ <= 1
 R495: x9_7_ + x12_7_ <= 1
 R496: x9_8_ + x12_8_ <= 1
 R497: x9_9_ + x12_9_ <= 1
 R498: x9_6_ + x13_6_ <= 1
 R499: x9_7_ + x13_7_ <= 1
 R500: x9_8_ + x13_8_ <= 1
 R501: x9_9_ + x13_9_ <= 1
 R502: x9_6_ + x14_6_ <= 1
 R503: x9_7_ + x14_7_ <= 1
 R504: x9_8_ + x14_8_ <= 1
 R505: x9_9_ + x14_9_ <= 1
 R506: x0_0_ + x10_0_ <= 1
 R507: x0_1_ + x10_1_ <= 1
 R508: x0_2_ + x10_2_ <= 1
 R509: x0_3_ + x10_3_ <= 1
 R510: x0_4_ + x10_4_ <= 1
 R511: x0_5_ + x10_5_ <= 1
 R512: x0_6_ + x10_6_ <= 1
 R513: x0_7_ + x10_7_ <= 1
 R514: x0_8_ + x10_8_ <= 1
 R515: x0_9_ + x10_9_ <= 1
 R516: x3_0_ + x10_0_ <= 1
 R517: x3_1_ + x10_1_ <= 1
 R518: x3_2_ + x10_2_ <= 1
 R519: x3_3_ + x10_3_ <= 1
 R520: x3_4_ + x10_4_ <= 1
 R521: x3_5_ + x10_5_ <= 1
 R522: x3_6_ + x10_6_ <= 1
 R523: x3_7_ + x10_7_ <= 1
 R524: x3_8_ + x10_8_ <= 1
 R525: x3_9_ + x10_9_ <= 1
 R526: x4_0_ + x10_0_ <= 1
 R527: x4_1_ + x10_1_ <= 1
 R528: x4_2_ + x10_2_ <= 1
 R529: x4_3_ + x10_3_ <= 1
 R530: x4_4_ + x10_4_ <= 1
 R531: x4_5_ + x10_5_ <= 1
 R532: x4_6_ + x10_6_ <= 1
 R533: x4_7_ + x10_7_ <= 1
 R534: x4_8_ + x10_8_ <= 1
 R535: x4_9_ + x10_9_ <= 1
 R536: x6_0_ + x10_0_ <= 1
 R537: x6_1_ + x10_1_ <= 1
 R538: x6_2_ + x10_2_ <= 1
 R539: x6_3_ + x10_3_ <= 1
 R540: x6_4_ + x10_4_ <= 1
 R541: x6_5_ + x10_5_ <= 1
 R542: x6_6_ + x10_6_ <= 1
 R543: x6_7_ + x10_7_ <= 1
 R544: x6_8_ + x10_8_ <= 1
 R545: x6_9_ + x10_9_ <= 1
 R546: x7_0_ + x10_0_ <= 1
 R547: x7_1_ + x10_1_ <= 1
 R548: x7_2_ + x10_2_ <= 1
 R549: x7_3_ + x10_3_ <= 1
 R550: x7_4_ + x10_4_ <= 1
 R551: x7_5_ + x10_5_ <= 1
 R552: x7_6_ + x10_6_ <= 1
 R553: x7_7_ + x10_7_ <= 1
 R554: x7_8_ + x10_8_ <= 1
 R555: x7_9_ + x10_9_ <= 1
 R556: x10_0_ + x12_0_ <= 1
 R557: x10_1_ + x12_1_ <= 1
 R558: x10_2_ + x12_2_ <= 1
 R559: x10_3_ + x12_3_ <= 1
 R560: x10_4_ + x12_4_ <= 1
 R561: x10_5_ + x12_5_ <= 1
 R562: x10_6_ + x12_6_ <= 1
 R563: x10_7_ + x12_7_ <= 1
 R564: x10_8_ + x12_8_ <= 1
 R565: x10_9_ + x12_9_ <= 1
 R566: x10_0_ + x13_0_ <= 1
 R567: x10_1_ + x13_1_ <= 1
 R568: x10_2_ + x13_2_ <= 1
 R569: x10_3_ + x13_3_ <= 1
 R570: x10_4_ + x13_4_ <= 1
 R571: x10_5_ + x13_5_ <= 1
 R572: x10_6_ + x13_6_ <= 1
 R573: x10_7_ + x13_7_ <= 1
 R574: x10_8_ + x13_8_ <= 1
 R575: x10_9_ + x13_9_ <= 1
 R576: x1_6_ + x11_6_ <= 1
 R577: x1_7_ + x11_7_ <= 1
 R578: x1_8_ + x11_8_ <= 1
 R579: x1_9_ + x11_9_ <= 1
 R580: x3_6_ + x11_6_ <= 1
 R581: x3_7_ + x11_7_ <= 1
 R582: x3_8_ + x11_8_ <= 1
 R583: x3_9_ + x11_9_ <= 1
 R584: x6_6_ + x11_6_ <= 1
 R585: x6_7_ + x11_7_ <= 1
 R586: x6_8_ + x11_8_ <= 1
 R587: x6_9_ + x11_9_ <= 1
 R588: x7_6_ + x11_6_ <= 1
 R589: x7_7_ + x11_7_ <= 1
 R590: x7_8_ + x11_8_ <= 1
 R591: x7_9_ + x11_9_ <= 1
 R592: x9_6_ + x11_6_ <= 1
 R593: x9_7_ + x11_7_ <= 1
 R594: x9_8_ + x11_8_ <= 1
 R595: x9_9_ + x11_9_ <= 1
 R596: x11_6_ + x12_6_ <= 1
 R597: x11_7_ + x12_7_ <= 1
 R598: x11_8_ + x12_8_ <= 1
 R599: x11_9_ + x12_9_ <= 1
 R600: x0_0_ + x12_0_ <= 1
 R601: x0_1_ + x12_1_ <= 1
 R602: x0_2_ + x12_2_ <= 1
 R603: x0_3_ + x12_3_ <= 1
 R604: x0_4_ + x12_4_ <= 1
 R605: x0_5_ + x12_5_ <= 1
 R606: x0_6_ + x12_6_ <= 1
 R607: x0_7_ + x12_7_ <= 1
 R608: x0_8_ + x12_8_ <= 1
 R609: x0_9_ + x12_9_ <= 1
 R610: x3_0_ + x12_0_ <= 1
 R611: x3_1_ + x12_1_ <= 1
 R612: x3_2_ + x12_2_ <= 1
 R613: x3_3_ + x12_3_ <= 1
 R614: x3_4_ + x12_4_ <= 1
 R615: x3_5_ + x12_5_ <= 1
 R616: x3_6_ + x12_6_ <= 1
 R617: x3_7_ + x12_7_ <= 1
 R618: x3_8_ + x12_8_ <= 1
 R619: x3_9_ + x12_9_ <= 1
 R620: x4_0_ + x12_0_ <= 1
 R621: x4_1_ + x12_1_ <= 1
 R622: x4_2_ + x12_2_ <= 1
 R623: x4_3_ + x12_3_ <= 1
 R624: x4_4_ + x12_4_ <= 1
 R625: x4_5_ + x12_5_ <= 1
 R626: x4_6_ + x12_6_ <= 1
 R627: x4_7_ + x12_7_ <= 1
 R628: x4_8_ + x12_8_ <= 1
 R629: x4_9_ + x12_9_ <= 1
 R630: x6_0_ + x12_0_ <= 1
 R631: x6_1_ + x12_1_ <= 1
 R632: x6_2_ + x12_2_ <= 1
 R633: x6_3_ + x12_3_ <= 1
 R634: x6_4_ + x12_4_ <= 1
 R635: x6_5_ + x12_5_ <= 1
 R636: x6_6_ + x12_6_ <= 1
 R637: x6_7_ + x12_7_ <= 1
 R638: x6_8_ + x12_8_ <= 1
 R639: x6_9_ + x12_9_ <= 1
 R640: x7_0_ + x12_0_ <= 1
 R641: x7_1_ + x12_1_ <= 1
 R642: x7_2_ + x12_2_ <= 1
 R643: x7_3_ + x12_3_ <= 1
 R644: x7_4_ + x12_4_ <= 1
 R645: x7_5_ + x12_5_ <= 1
 R646: x7_6_ + x12_6_ <= 1
 R647: x7_7_ + x12_7_ <= 1
 R648: x7_8_ + x12_8_ <= 1
 R649: x7_9_ + x12_9_ <= 1
 R650: x10_0_ + x12_0_ <= 1
 R651: x10_1_ + x12_1_ <= 1
 R652: x10_2_ + x12_2_ <= 1
 R653: x10_3_ + x12_3_ <= 1
 R654: x10_4_ + x12_4_ <= 1
 R655: x10_5_ + x12_5_ <= 1
 R656: x10_6_ + x12_6_ <= 1
 R657: x10_7_ + x12_7_ <= 1
 R658: x10_8_ + x12_8_ <= 1
 R659: x10_9_ + x12_9_ <= 1
 R660: x12_0_ + x13_0_ <= 1
 R661: x12_1_ + x13_1_ <= 1
 R662: x12_2_ + x13_2_ <= 1
 R663: x12_3_ + x13_3_ <= 1
 R664: x12_4_ + x13_4_ <= 1
 R665: x12_5_ + x13_5_ <= 1
 R666: x12_6_ + x13_6_ <= 1
 R667: x12_7_ + x13_7_ <= 1
 R668: x12_8_ + x13_8_ <= 1
 R669: x12_9_ + x13_9_ <= 1
 R670: x0_0_ + x13_0_ <= 1
 R671: x0_1_ + x13_1_ <= 1
 R672: x0_2_ + x13_2_ <= 1
 R673: x0_3_ + x13_3_ <= 1
 R674: x0_4_ + x13_4_ <= 1
 R675: x0_5_ + x13_5_ <= 1
 R676: x0_6_ + x13_6_ <= 1
 R677: x0_7_ + x13_7_ <= 1
 R678: x0_8_ + x13_8_ <= 1
 R679: x0_9_ + x13_9_ <= 1
 R680: x3_0_ + x13_0_ <= 1
 R681: x3_1_ + x13_1_ <= 1
 R682: x3_2_ + x13_2_ <= 1
 R683: x3_3_ + x13_3_ <= 1
 R684: x3_4_ + x13_4_ <= 1
 R685: x3_5_ + x13_5_ <= 1
 R686: x3_6_ + x13_6_ <= 1
 R687: x3_7_ + x13_7_ <= 1
 R688: x3_8_ + x13_8_ <= 1
 R689: x3_9_ + x13_9_ <= 1
 R690: x4_0_ + x13_0_ <= 1
 R691: x4_1_ + x13_1_ <= 1
 R692: x4_2_ + x13_2_ <= 1
 R693: x4_3_ + x13_3_ <= 1
 R694: x4_4_ + x13_4_ <= 1
 R695: x4_5_ + x13_5_ <= 1
 R696: x4_6_ + x13_6_ <= 1
 R697: x4_7_ + x13_7_ <= 1
 R698: x4_8_ + x13_8_ <= 1
 R699: x4_9_ + x13_9_ <= 1
 R700: x6_0_ + x13_0_ <= 1
 R701: x6_1_ + x13_1_ <= 1
 R702: x6_2_ + x13_2_ <= 1
 R703: x6_3_ + x13_3_ <= 1
 R704: x6_4_ + x13_4_ <= 1
 R705: x6_5_ + x13_5_ <= 1
 R706: x6_6_ + x13_6_ <= 1
 R707: x6_7_ + x13_7_ <= 1
 R708: x6_8_ + x13_8_ <= 1
 R709: x6_9_ + x13_9_ <= 1
 R710: x7_0_ + x13_0_ <= 1
 R711: x7_1_ + x13_1_ <= 1
 R712: x7_2_ + x13_2_ <= 1
 R713: x7_3_ + x13_3_ <= 1
 R714: x7_4_ + x13_4_ <= 1
 R715: x7_5_ + x13_5_ <= 1
 R716: x7_6_ + x13_6_ <= 1
 R717: x7_7_ + x13_7_ <= 1
 R718: x7_8_ + x13_8_ <= 1
 R719: x7_9_ + x13_9_ <= 1
 R720: x10_0_ + x13_0_ <= 1
 R721: x10_1_ + x13_1_ <= 1
 R722: x10_2_ + x13_2_ <= 1
 R723: x10_3_ + x13_3_ <= 1
 R724: x10_4_ + x13_4_ <= 1
 R725: x10_5_ + x13_5_ <= 1
 R726: x10_6_ + x13_6_ <= 1
 R727: x10_7_ + x13_7_ <= 1
 R728: x10_8_ + x13_8_ <= 1
 R729: x10_9_ + x13_9_ <= 1
 R730: x12_0_ + x13_0_ <= 1
 R731: x12_1_ + x13_1_ <= 1
 R732: x12_2_ + x13_2_ <= 1
 R733: x12_3_ + x13_3_ <= 1
 R734: x12_4_ + x13_4_ <= 1
 R735: x12_5_ + x13_5_ <= 1
 R736: x12_6_ + x13_6_ <= 1
 R737: x12_7_ + x13_7_ <= 1
 R738: x12_8_ + x13_8_ <= 1
 R739: x12_9_ + x13_9_ <= 1
 R740: x0_6_ + x14_6_ <= 1
 R741: x0_7_ + x14_7_ <= 1
 R742: x0_8_ + x14_8_ <= 1
 R743: x0_9_ + x14_9_ <= 1
 R744: x1_6_ + x14_6_ <= 1
 R745: x1_7_ + x14_7_ <= 1
 R746: x1_8_ + x14_8_ <= 1
 R747: x1_9_ + x14_9_ <= 1
 R748: x3_6_ + x14_6_ <= 1
 R749: x3_7_ + x14_7_ <= 1
 R750: x3_8_ + x14_8_ <= 1
 R751: x3_9_ + x14_9_ <= 1
 R752: x4_6_ + x14_6_ <= 1
 R753: x4_7_ + x14_7_ <= 1
 R754: x4_8_ + x14_8_ <= 1
 R755: x4_9_ + x14_9_ <= 1
 R756: x5_6_ + x14_6_ <= 1
 R757: x5_7_ + x14_7_ <= 1
 R758: x5_8_ + x14_8_ <= 1
 R759: x5_9_ + x14_9_ <= 1
 R760: x6_6_ + x14_6_ <= 1
 R761: x6_7_ + x14_7_ <= 1
 R762: x6_8_ + x14_8_ <= 1
 R763: x6_9_ + x14_9_ <= 1
 R764: x7_6_ + x14_6_ <= 1
 R765: x7_7_ + x14_7_ <= 1
 R766: x7_8_ + x14_8_ <= 1
 R767: x7_9_ + x14_9_ <= 1
 R768: x9_6_ + x14_6_ <= 1
 R769: x9_7_ + x14_7_ <= 1
 R770: x9_8_ + x14_8_ <= 1
 R771: x9_9_ + x14_9_ <= 1
 R772: x10_6_ + x14_6_ <= 1
 R773: x10_7_ + x14_7_ <= 1
 R774: x10_8_ + x14_8_ <= 1
 R775: x10_9_ + x14_9_ <= 1
 R776: x12_6_ + x14_6_ <= 1
 R777: x12_7_ + x14_7_ <= 1
 R778: x12_8_ + x14_8_ <= 1
 R779: x12_9_ + x14_9_ <= 1
 R780: x13_6_ + x14_6_ <= 1
 R781: x13_7_ + x14_7_ <= 1
 R782: x13_8_ + x14_8_ <= 1
 R783: x13_9_ + x14_9_ <= 1
 R784: <= 1
Bounds
Binaries
 x0_0_ x0_1_ x0_2_ x0_3_ x0_4_ x0_5_ x0_6_ x0_7_ x0_8_ x0_9_ x0_n_ x1_6_
 x1_7_ x1_8_ x1_9_ x1_n_ x2_7_ x2_8_ x2_9_ x2_n_ x3_0_ x3_1_ x3_2_ x3_3_
 x3_4_ x3_5_ x3_6_ x3_7_ x3_8_ x3_9_ x3_n_ x4_0_ x4_1_ x4_2_ x4_3_ x4_4_
 x4_5_ x4_6_ x4_7_ x4_8_ x4_9_ x4_n_ x5_6_ x5_7_ x5_8_ x5_9_ x5_n_ x6_0_
 x6_1_ x6_2_ x6_3_ x6_4_ x6_5_ x6_6_ x6_7_ x6_8_ x6_9_ x6_n_ x7_0_ x7_1_
 x7_2_ x7_3_ x7_4_ x7_5_ x7_6_ x7_7_ x7_8_ x7_9_ x7_n_ x8_0_ x8_1_ x8_2_
 x8_3_ x8_4_ x8_5_ x8_6_ x8_7_ x8_8_ x8_9_ x8_n_ x9_6_ x9_7_ x9_8_ x9_9_
 x9_n_ x10_0_ x10_1_ x10_2_ x10_3_ x10_4_ x10_5_ x10_6_ x10_7_ x10_8_
 x10_9_ x10_n_ x11_6_ x11_7_ x11_8_ x11_9_ x11_n_ x12_0_ x12_1_ x12_2_
 x12_3_ x12_4_ x12_5_ x12_6_ x12_7_ x12_8_ x12_9_ x12_n_ x13_0_ x13_1_
 x13_2_ x13_3_ x13_4_ x13_5_ x13_6_ x13_7_ x13_8_ x13_9_ x13_n_ x14_6_
 x14_7_ x14_8_ x14_9_ x14_n_
End
